Welcome to the CBC MILP Solver 
Version: 2.10.3 
Build Date: Dec 15 2019 

command line - /home/cdmonsalvea/AI_OR_Workflow/.venv/lib/python3.10/site-packages/pulp/solverdir/cbc/linux/64/cbc /tmp/22c3fece0a7c496eb7f5a77e120c16bd-pulp.mps -sec 3600 -timeMode elapsed -branch -printingOptions all -solution /tmp/22c3fece0a7c496eb7f5a77e120c16bd-pulp.sol (default strategy 1)
At line 2 NAME          MODEL
At line 3 ROWS
At line 35 COLUMNS
At line 756 RHS
At line 787 BOUNDS
At line 803 ENDATA
Problem MODEL has 30 rows, 240 columns and 465 elements
Coin0008I MODEL read with 0 errors
seconds was changed from 1e+100 to 3600
Option for timeMode changed from cpu to elapsed
Continuous objective value is 1.20652e+07 - 0.00 seconds
Cgl0004I processed model has 30 rows, 240 columns (15 integer (15 of which binary)) and 465 elements
Cbc0038I Initial state - 15 integers unsatisfied sum - 2.585
Cbc0038I Pass   1: suminf.    0.08397 (1) obj. 6.88355e+07 iterations 14
Cbc0038I Pass   2: suminf.    0.08397 (1) obj. 6.88355e+07 iterations 0
Cbc0038I Solution found of 7.16855e+07
Cbc0038I Relaxing continuous gives 5.31314e+07
Cbc0038I Before mini branch and bound, 0 integers at bound fixed and 196 continuous
Cbc0038I Full problem 30 rows 240 columns, reduced to 26 rows 38 columns
Cbc0038I Mini branch and bound improved solution from 5.31314e+07 to 4.62971e+07 (0.01 seconds)
Cbc0038I Freeing continuous variables gives a solution of 4.12894e+07
Cbc0038I Round again with cutoff of 3.8367e+07
Cbc0038I Pass   3: suminf.    1.08397 (6) obj. 3.8367e+07 iterations 13
Cbc0038I Pass   4: suminf.    0.61570 (4) obj. 3.8367e+07 iterations 18
Cbc0038I Pass   5: suminf.    1.17517 (6) obj. 3.8367e+07 iterations 12
Cbc0038I Pass   6: suminf.    1.03888 (5) obj. 3.8367e+07 iterations 8
Cbc0038I Pass   7: suminf.    0.88546 (4) obj. 3.8367e+07 iterations 3
Cbc0038I Pass   8: suminf.    1.03888 (5) obj. 3.8367e+07 iterations 2
Cbc0038I Pass   9: suminf.    0.20081 (2) obj. 3.8367e+07 iterations 12
Cbc0038I Pass  10: suminf.    0.49702 (5) obj. 3.8367e+07 iterations 8
Cbc0038I Pass  11: suminf.    1.03888 (5) obj. 3.8367e+07 iterations 6
Cbc0038I Pass  12: suminf.    0.85560 (3) obj. 3.8367e+07 iterations 14
Cbc0038I Pass  13: suminf.    0.24719 (2) obj. 3.8367e+07 iterations 6
Cbc0038I Pass  14: suminf.    0.31995 (3) obj. 3.8367e+07 iterations 5
Cbc0038I Pass  15: suminf.    0.91395 (4) obj. 3.8367e+07 iterations 5
Cbc0038I Pass  16: suminf.    0.83450 (3) obj. 3.8367e+07 iterations 3
Cbc0038I Pass  17: suminf.    0.69833 (5) obj. 3.8367e+07 iterations 20
Cbc0038I Pass  18: suminf.    0.36198 (3) obj. 3.8367e+07 iterations 9
Cbc0038I Pass  19: suminf.    0.91395 (4) obj. 3.8367e+07 iterations 6
Cbc0038I Pass  20: suminf.    0.94306 (3) obj. 3.8367e+07 iterations 12
Cbc0038I Pass  21: suminf.    0.22017 (3) obj. 3.8367e+07 iterations 8
Cbc0038I Pass  22: suminf.    0.57093 (3) obj. 3.8367e+07 iterations 10
Cbc0038I Pass  23: suminf.    0.34813 (2) obj. 3.8367e+07 iterations 2
Cbc0038I Pass  24: suminf.    0.31741 (3) obj. 3.8367e+07 iterations 6
Cbc0038I Pass  25: suminf.    0.91060 (5) obj. 3.8367e+07 iterations 11
Cbc0038I Pass  26: suminf.    0.91060 (5) obj. 3.8367e+07 iterations 0
Cbc0038I Pass  27: suminf.    0.82086 (4) obj. 3.8367e+07 iterations 2
Cbc0038I Pass  28: suminf.    0.73806 (4) obj. 3.8367e+07 iterations 4
Cbc0038I Pass  29: suminf.    0.91060 (5) obj. 3.8367e+07 iterations 2
Cbc0038I Pass  30: suminf.    0.98179 (4) obj. 3.8367e+07 iterations 9
Cbc0038I Pass  31: suminf.    1.03888 (5) obj. 3.8367e+07 iterations 8
Cbc0038I Pass  32: suminf.    0.91528 (5) obj. 3.8367e+07 iterations 1
Cbc0038I No solution found this major pass
Cbc0038I Before mini branch and bound, 0 integers at bound fixed and 181 continuous
Cbc0038I Full problem 30 rows 240 columns, reduced to 29 rows 56 columns
Cbc0038I Mini branch and bound improved solution from 4.12894e+07 to 3.70564e+07 (0.03 seconds)
Cbc0038I Round again with cutoff of 3.20582e+07
Cbc0038I Pass  32: suminf.    1.08397 (9) obj. 3.20582e+07 iterations 12
Cbc0038I Pass  33: suminf.    2.01111 (8) obj. 3.20582e+07 iterations 17
Cbc0038I Pass  34: suminf.    1.34762 (7) obj. 3.20582e+07 iterations 3
Cbc0038I Pass  35: suminf.    1.25696 (7) obj. 3.20582e+07 iterations 6
Cbc0038I Pass  36: suminf.    1.25696 (7) obj. 3.20582e+07 iterations 0
Cbc0038I Pass  37: suminf.    1.39559 (7) obj. 3.20582e+07 iterations 1
Cbc0038I Pass  38: suminf.    1.39559 (7) obj. 3.20582e+07 iterations 0
Cbc0038I Pass  39: suminf.    1.25696 (7) obj. 3.20582e+07 iterations 1
Cbc0038I Pass  40: suminf.    1.10494 (7) obj. 3.20582e+07 iterations 6
Cbc0038I Pass  41: suminf.    1.25696 (7) obj. 3.20582e+07 iterations 3
Cbc0038I Pass  42: suminf.    1.25696 (7) obj. 3.20582e+07 iterations 0
Cbc0038I Pass  43: suminf.    1.39559 (7) obj. 3.20582e+07 iterations 1
Cbc0038I Pass  44: suminf.    1.39559 (7) obj. 3.20582e+07 iterations 0
Cbc0038I Pass  45: suminf.    1.25696 (7) obj. 3.20582e+07 iterations 1
Cbc0038I Pass  46: suminf.    1.04681 (7) obj. 3.20582e+07 iterations 9
Cbc0038I Pass  47: suminf.    1.02276 (7) obj. 3.20582e+07 iterations 1
Cbc0038I Pass  48: suminf.    1.25696 (7) obj. 3.20582e+07 iterations 8
Cbc0038I Pass  49: suminf.    1.25696 (7) obj. 3.20582e+07 iterations 0
Cbc0038I Pass  50: suminf.    1.39559 (7) obj. 3.20582e+07 iterations 1
Cbc0038I Pass  51: suminf.    1.39559 (7) obj. 3.20582e+07 iterations 0
Cbc0038I Pass  52: suminf.    1.25696 (7) obj. 3.20582e+07 iterations 1
Cbc0038I Pass  53: suminf.    1.25696 (7) obj. 3.20582e+07 iterations 0
Cbc0038I Pass  54: suminf.    1.17778 (7) obj. 3.20582e+07 iterations 2
Cbc0038I Pass  55: suminf.    1.17778 (7) obj. 3.20582e+07 iterations 0
Cbc0038I Pass  56: suminf.    1.25696 (7) obj. 3.20582e+07 iterations 2
Cbc0038I Pass  57: suminf.    1.25696 (7) obj. 3.20582e+07 iterations 0
Cbc0038I Pass  58: suminf.    1.39559 (7) obj. 3.20582e+07 iterations 1
Cbc0038I Pass  59: suminf.    1.39559 (7) obj. 3.20582e+07 iterations 0
Cbc0038I Pass  60: suminf.    1.25696 (7) obj. 3.20582e+07 iterations 1
Cbc0038I Pass  61: suminf.    1.81605 (8) obj. 3.20582e+07 iterations 6
Cbc0038I No solution found this major pass
Cbc0038I Before mini branch and bound, 0 integers at bound fixed and 201 continuous
Cbc0038I Full problem 30 rows 240 columns, reduced to 15 rows 23 columns
Cbc0038I Mini branch and bound did not improve solution (0.03 seconds)
Cbc0038I After 0.03 seconds - Feasibility pump exiting with objective of 3.70564e+07 - took 0.03 seconds
Cbc0012I Integer solution of 37056404 found by feasibility pump after 0 iterations and 0 nodes (0.03 seconds)
Cbc0031I 17 added rows had average density of 19.411765
Cbc0013I At root node, 17 cuts changed objective from 12065235 to 35727901 in 3 passes
Cbc0014I Cut generator 0 (Probing) - 0 row cuts average 0.0 elements, 0 column cuts (0 active)  in 0.001 seconds - new frequency is -100
Cbc0014I Cut generator 1 (Gomory) - 16 row cuts average 16.9 elements, 0 column cuts (0 active)  in 0.000 seconds - new frequency is 1
Cbc0014I Cut generator 2 (Knapsack) - 0 row cuts average 0.0 elements, 0 column cuts (0 active)  in 0.000 seconds - new frequency is -100
Cbc0014I Cut generator 3 (Clique) - 0 row cuts average 0.0 elements, 0 column cuts (0 active)  in 0.000 seconds - new frequency is -100
Cbc0014I Cut generator 4 (MixedIntegerRounding2) - 0 row cuts average 0.0 elements, 0 column cuts (0 active)  in 0.000 seconds - new frequency is -100
Cbc0014I Cut generator 5 (FlowCover) - 0 row cuts average 0.0 elements, 0 column cuts (0 active)  in 0.000 seconds - new frequency is -100
Cbc0014I Cut generator 6 (TwoMirCuts) - 17 row cuts average 19.4 elements, 0 column cuts (0 active)  in 0.000 seconds - new frequency is 1
Cbc0001I Search completed - best objective 37056404.29889242, took 26 iterations and 0 nodes (0.04 seconds)
Cbc0032I Strong branching done 4 times (9 iterations), fathomed 1 nodes and fixed 0 variables
Cbc0035I Maximum depth 0, 0 variables fixed on reduced cost
Cuts at root node changed objective from 1.20652e+07 to 3.92964e+07
Probing was tried 3 times and created 0 cuts of which 0 were active after adding rounds of cuts (0.001 seconds)
Gomory was tried 3 times and created 16 cuts of which 0 were active after adding rounds of cuts (0.000 seconds)
Knapsack was tried 3 times and created 0 cuts of which 0 were active after adding rounds of cuts (0.000 seconds)
Clique was tried 3 times and created 0 cuts of which 0 were active after adding rounds of cuts (0.000 seconds)
MixedIntegerRounding2 was tried 3 times and created 0 cuts of which 0 were active after adding rounds of cuts (0.000 seconds)
FlowCover was tried 3 times and created 0 cuts of which 0 were active after adding rounds of cuts (0.000 seconds)
TwoMirCuts was tried 3 times and created 17 cuts of which 0 were active after adding rounds of cuts (0.000 seconds)
ZeroHalf was tried 1 times and created 0 cuts of which 0 were active after adding rounds of cuts (0.000 seconds)

Result - Optimal solution found

Objective value:                37056404.29889242
Enumerated nodes:               0
Total iterations:               26
Time (CPU seconds):             0.04
Time (Wallclock seconds):       0.04

Option for printingOptions changed from normal to all
Total time (CPU seconds):       0.04   (Wallclock seconds):       0.04

